letting numberLocations be  38
letting costs be function (
(0,0) --> 0,
(0,1) --> 54,
(0,2) --> 83,
(0,3) --> 12,
(0,4) --> 27,
(0,5) --> 48,
(0,6) --> 36,
(0,7) --> 26,
(0,8) --> 18,
(0,9) --> 21,
(0,10) --> 29,
(0,11) --> 55,
(0,12) --> 56,
(0,13) --> 30,
(0,14) --> 19,
(0,15) --> 49,
(0,16) --> 93,
(0,17) --> 29,
(0,18) --> 35,
(0,19) --> 30,
(0,20) --> 30,
(0,21) --> 86,
(0,22) --> 91,
(0,23) --> 89,
(0,24) --> 86,
(0,25) --> 59,
(0,26) --> 61,
(0,27) --> 34,
(0,28) --> 22,
(0,29) --> 16,
(0,30) --> 93,
(0,31) --> 18,
(0,32) --> 59,
(0,33) --> 85,
(0,34) --> 27,
(0,35) --> 28,
(0,36) --> 22,
(0,37) --> 88,
(0,38) --> 36,
(1,0) --> 54,
(1,1) --> 0,
(1,2) --> 30,
(1,3) --> 45,
(1,4) --> 34,
(1,5) --> 35,
(1,6) --> 90,
(1,7) --> 80,
(1,8) --> 71,
(1,9) --> 75,
(1,10) --> 83,
(1,11) --> 36,
(1,12) --> 29,
(1,13) --> 83,
(1,14) --> 72,
(1,15) --> 34,
(1,16) --> 40,
(1,17) --> 30,
(1,18) --> 88,
(1,19) --> 84,
(1,20) --> 84,
(1,21) --> 33,
(1,22) --> 37,
(1,23) --> 36,
(1,24) --> 33,
(1,25) --> 6,
(1,26) --> 7,
(1,27) --> 25,
(1,28) --> 38,
(1,29) --> 69,
(1,30) --> 40,
(1,31) --> 38,
(1,32) --> 7,
(1,33) --> 31,
(1,34) --> 81,
(1,35) --> 32,
(1,36) --> 36,
(1,37) --> 34,
(1,38) --> 25,
(2,0) --> 83,
(2,1) --> 30,
(2,2) --> 0,
(2,3) --> 74,
(2,4) --> 61,
(2,5) --> 57,
(2,6) --> 119,
(2,7) --> 109,
(2,8) --> 101,
(2,9) --> 105,
(2,10) --> 112,
(2,11) --> 55,
(2,12) --> 47,
(2,13) --> 112,
(2,14) --> 101,
(2,15) --> 56,
(2,16) --> 10,
(2,17) --> 58,
(2,18) --> 118,
(2,19) --> 113,
(2,20) --> 113,
(2,21) --> 3,
(2,22) --> 9,
(2,23) --> 7,
(2,24) --> 3,
(2,25) --> 24,
(2,26) --> 23,
(2,27) --> 52,
(2,28) --> 66,
(2,29) --> 99,
(2,30) --> 10,
(2,31) --> 67,
(2,32) --> 24,
(2,33) --> 1,
(2,34) --> 110,
(2,35) --> 60,
(2,36) --> 65,
(2,37) --> 4,
(2,38) --> 51,
(3,0) --> 12,
(3,1) --> 45,
(3,2) --> 74,
(3,3) --> 0,
(3,4) --> 15,
(3,5) --> 47,
(3,6) --> 45,
(3,7) --> 35,
(3,8) --> 27,
(3,9) --> 32,
(3,10) --> 38,
(3,11) --> 54,
(3,12) --> 53,
(3,13) --> 38,
(3,14) --> 27,
(3,15) --> 48,
(3,16) --> 84,
(3,17) --> 17,
(3,18) --> 44,
(3,19) --> 40,
(3,20) --> 40,
(3,21) --> 77,
(3,22) --> 82,
(3,23) --> 79,
(3,24) --> 77,
(3,25) --> 50,
(3,26) --> 52,
(3,27) --> 23,
(3,28) --> 9,
(3,29) --> 26,
(3,30) --> 84,
(3,31) --> 7,
(3,32) --> 50,
(3,33) --> 75,
(3,34) --> 37,
(3,35) --> 17,
(3,36) --> 10,
(3,37) --> 78,
(3,38) --> 25,
(4,0) --> 27,
(4,1) --> 34,
(4,2) --> 61,
(4,3) --> 15,
(4,4) --> 0,
(4,5) --> 47,
(4,6) --> 60,
(4,7) --> 50,
(4,8) --> 42,
(4,9) --> 47,
(4,10) --> 53,
(4,11) --> 52,
(4,12) --> 49,
(4,13) --> 52,
(4,14) --> 41,
(4,15) --> 47,
(4,16) --> 71,
(4,17) --> 3,
(4,18) --> 58,
(4,19) --> 55,
(4,20) --> 55,
(4,21) --> 64,
(4,22) --> 69,
(4,23) --> 66,
(4,24) --> 64,
(4,25) --> 38,
(4,26) --> 40,
(4,27) --> 9,
(4,28) --> 6,
(4,29) --> 41,
(4,30) --> 71,
(4,31) --> 9,
(4,32) --> 37,
(4,33) --> 62,
(4,34) --> 52,
(4,35) --> 1,
(4,36) --> 5,
(4,37) --> 65,
(4,38) --> 10,
(5,0) --> 48,
(5,1) --> 35,
(5,2) --> 57,
(5,3) --> 47,
(5,4) --> 47,
(5,5) --> 0,
(5,6) --> 81,
(5,7) --> 71,
(5,8) --> 65,
(5,9) --> 66,
(5,10) --> 75,
(5,11) --> 7,
(5,12) --> 11,
(5,13) --> 76,
(5,14) --> 66,
(5,15) --> 1,
(5,16) --> 65,
(5,17) --> 45,
(5,18) --> 80,
(5,19) --> 74,
(5,20) --> 74,
(5,21) --> 60,
(5,22) --> 61,
(5,23) --> 64,
(5,24) --> 60,
(5,25) --> 39,
(5,26) --> 39,
(5,27) --> 44,
(5,28) --> 47,
(5,29) --> 61,
(5,30) --> 66,
(5,31) --> 44,
(5,32) --> 42,
(5,33) --> 58,
(5,34) --> 72,
(5,35) --> 46,
(5,36) --> 45,
(5,37) --> 61,
(5,38) --> 45,
(6,0) --> 36,
(6,1) --> 90,
(6,2) --> 119,
(6,3) --> 45,
(6,4) --> 60,
(6,5) --> 81,
(6,6) --> 0,
(6,7) --> 10,
(6,8) --> 18,
(6,9) --> 15,
(6,10) --> 7,
(6,11) --> 88,
(6,12) --> 90,
(6,13) --> 8,
(6,14) --> 18,
(6,15) --> 82,
(6,16) --> 129,
(6,17) --> 62,
(6,18) --> 1,
(6,19) --> 7,
(6,20) --> 7,
(6,21) --> 122,
(6,22) --> 127,
(6,23) --> 125,
(6,24) --> 122,
(6,25) --> 95,
(6,26) --> 97,
(6,27) --> 68,
(6,28) --> 54,
(6,29) --> 21,
(6,30) --> 129,
(6,31) --> 52,
(6,32) --> 95,
(6,33) --> 121,
(6,34) --> 9,
(6,35) --> 61,
(6,36) --> 55,
(6,37) --> 123,
(6,38) --> 70,
(7,0) --> 26,
(7,1) --> 80,
(7,2) --> 109,
(7,3) --> 35,
(7,4) --> 50,
(7,5) --> 71,
(7,6) --> 10,
(7,7) --> 0,
(7,8) --> 9,
(7,9) --> 5,
(7,10) --> 4,
(7,11) --> 78,
(7,12) --> 80,
(7,13) --> 6,
(7,14) --> 9,
(7,15) --> 72,
(7,16) --> 119,
(7,17) --> 53,
(7,18) --> 9,
(7,19) --> 4,
(7,20) --> 4,
(7,21) --> 112,
(7,22) --> 117,
(7,23) --> 115,
(7,24) --> 112,
(7,25) --> 85,
(7,26) --> 87,
(7,27) --> 58,
(7,28) --> 44,
(7,29) --> 10,
(7,30) --> 119,
(7,31) --> 43,
(7,32) --> 85,
(7,33) --> 110,
(7,34) --> 2,
(7,35) --> 52,
(7,36) --> 46,
(7,37) --> 113,
(7,38) --> 60,
(8,0) --> 18,
(8,1) --> 71,
(8,2) --> 101,
(8,3) --> 27,
(8,4) --> 42,
(8,5) --> 65,
(8,6) --> 18,
(8,7) --> 9,
(8,8) --> 0,
(8,9) --> 6,
(8,10) --> 11,
(8,11) --> 72,
(8,12) --> 73,
(8,13) --> 12,
(8,14) --> 3,
(8,15) --> 66,
(8,16) --> 111,
(8,17) --> 44,
(8,18) --> 17,
(8,19) --> 13,
(8,20) --> 13,
(8,21) --> 103,
(8,22) --> 108,
(8,23) --> 106,
(8,24) --> 103,
(8,25) --> 77,
(8,26) --> 78,
(8,27) --> 50,
(8,28) --> 36,
(8,29) --> 4,
(8,30) --> 111,
(8,31) --> 34,
(8,32) --> 76,
(8,33) --> 102,
(8,34) --> 10,
(8,35) --> 43,
(8,36) --> 37,
(8,37) --> 105,
(8,38) --> 51,
(9,0) --> 21,
(9,1) --> 75,
(9,2) --> 105,
(9,3) --> 32,
(9,4) --> 47,
(9,5) --> 66,
(9,6) --> 15,
(9,7) --> 5,
(9,8) --> 6,
(9,9) --> 0,
(9,10) --> 9,
(9,11) --> 73,
(9,12) --> 75,
(9,13) --> 11,
(9,14) --> 8,
(9,15) --> 67,
(9,16) --> 115,
(9,17) --> 49,
(9,18) --> 14,
(9,19) --> 9,
(9,20) --> 9,
(9,21) --> 107,
(9,22) --> 112,
(9,23) --> 110,
(9,24) --> 107,
(9,25) --> 81,
(9,26) --> 82,
(9,27) --> 55,
(9,28) --> 41,
(9,29) --> 6,
(9,30) --> 115,
(9,31) --> 39,
(9,32) --> 81,
(9,33) --> 106,
(9,34) --> 6,
(9,35) --> 48,
(9,36) --> 42,
(9,37) --> 109,
(9,38) --> 56,
(10,0) --> 29,
(10,1) --> 83,
(10,2) --> 112,
(10,3) --> 38,
(10,4) --> 53,
(10,5) --> 75,
(10,6) --> 7,
(10,7) --> 4,
(10,8) --> 11,
(10,9) --> 9,
(10,10) --> 0,
(10,11) --> 82,
(10,12) --> 84,
(10,13) --> 3,
(10,14) --> 11,
(10,15) --> 76,
(10,16) --> 122,
(10,17) --> 55,
(10,18) --> 6,
(10,19) --> 4,
(10,20) --> 4,
(10,21) --> 115,
(10,22) --> 120,
(10,23) --> 117,
(10,24) --> 115,
(10,25) --> 88,
(10,26) --> 90,
(10,27) --> 61,
(10,28) --> 47,
(10,29) --> 14,
(10,30) --> 122,
(10,31) --> 45,
(10,32) --> 88,
(10,33) --> 113,
(10,34) --> 4,
(10,35) --> 54,
(10,36) --> 48,
(10,37) --> 116,
(10,38) --> 62,
(11,0) --> 55,
(11,1) --> 36,
(11,2) --> 55,
(11,3) --> 54,
(11,4) --> 52,
(11,5) --> 7,
(11,6) --> 88,
(11,7) --> 78,
(11,8) --> 72,
(11,9) --> 73,
(11,10) --> 82,
(11,11) --> 0,
(11,12) --> 8,
(11,13) --> 84,
(11,14) --> 74,
(11,15) --> 6,
(11,16) --> 62,
(11,17) --> 50,
(11,18) --> 87,
(11,19) --> 81,
(11,20) --> 81,
(11,21) --> 58,
(11,22) --> 58,
(11,23) --> 62,
(11,24) --> 58,
(11,25) --> 40,
(11,26) --> 39,
(11,27) --> 49,
(11,28) --> 53,
(11,29) --> 68,
(11,30) --> 63,
(11,31) --> 50,
(11,32) --> 42,
(11,33) --> 56,
(11,34) --> 79,
(11,35) --> 52,
(11,36) --> 51,
(11,37) --> 59,
(11,38) --> 50,
(12,0) --> 56,
(12,1) --> 29,
(12,2) --> 47,
(12,3) --> 53,
(12,4) --> 49,
(12,5) --> 11,
(12,6) --> 90,
(12,7) --> 80,
(12,8) --> 73,
(12,9) --> 75,
(12,10) --> 84,
(12,11) --> 8,
(12,12) --> 0,
(12,13) --> 85,
(12,14) --> 75,
(12,15) --> 10,
(12,16) --> 54,
(12,17) --> 47,
(12,18) --> 89,
(12,19) --> 84,
(12,20) --> 84,
(12,21) --> 50,
(12,22) --> 50,
(12,23) --> 54,
(12,24) --> 50,
(12,25) --> 32,
(12,26) --> 32,
(12,27) --> 45,
(12,28) --> 51,
(12,29) --> 70,
(12,30) --> 55,
(12,31) --> 48,
(12,32) --> 35,
(12,33) --> 48,
(12,34) --> 81,
(12,35) --> 49,
(12,36) --> 49,
(12,37) --> 51,
(12,38) --> 46,
(13,0) --> 30,
(13,1) --> 83,
(13,2) --> 112,
(13,3) --> 38,
(13,4) --> 52,
(13,5) --> 76,
(13,6) --> 8,
(13,7) --> 6,
(13,8) --> 12,
(13,9) --> 11,
(13,10) --> 3,
(13,11) --> 84,
(13,12) --> 85,
(13,13) --> 0,
(13,14) --> 11,
(13,15) --> 78,
(13,16) --> 122,
(13,17) --> 55,
(13,18) --> 6,
(13,19) --> 7,
(13,20) --> 7,
(13,21) --> 115,
(13,22) --> 120,
(13,23) --> 118,
(13,24) --> 115,
(13,25) --> 88,
(13,26) --> 90,
(13,27) --> 61,
(13,28) --> 47,
(13,29) --> 15,
(13,30) --> 122,
(13,31) --> 45,
(13,32) --> 88,
(13,33) --> 114,
(13,34) --> 7,
(13,35) --> 54,
(13,36) --> 48,
(13,37) --> 117,
(13,38) --> 62,
(14,0) --> 19,
(14,1) --> 72,
(14,2) --> 101,
(14,3) --> 27,
(14,4) --> 41,
(14,5) --> 66,
(14,6) --> 18,
(14,7) --> 9,
(14,8) --> 3,
(14,9) --> 8,
(14,10) --> 11,
(14,11) --> 74,
(14,12) --> 75,
(14,13) --> 11,
(14,14) --> 0,
(14,15) --> 68,
(14,16) --> 111,
(14,17) --> 44,
(14,18) --> 17,
(14,19) --> 14,
(14,20) --> 14,
(14,21) --> 104,
(14,22) --> 109,
(14,23) --> 106,
(14,24) --> 104,
(14,25) --> 77,
(14,26) --> 79,
(14,27) --> 50,
(14,28) --> 35,
(14,29) --> 7,
(14,30) --> 111,
(14,31) --> 34,
(14,32) --> 77,
(14,33) --> 102,
(14,34) --> 11,
(14,35) --> 43,
(14,36) --> 37,
(14,37) --> 105,
(14,38) --> 51,
(15,0) --> 49,
(15,1) --> 34,
(15,2) --> 56,
(15,3) --> 48,
(15,4) --> 47,
(15,5) --> 1,
(15,6) --> 82,
(15,7) --> 72,
(15,8) --> 66,
(15,9) --> 67,
(15,10) --> 76,
(15,11) --> 6,
(15,12) --> 10,
(15,13) --> 78,
(15,14) --> 68,
(15,15) --> 0,
(15,16) --> 63,
(15,17) --> 45,
(15,18) --> 81,
(15,19) --> 75,
(15,20) --> 75,
(15,21) --> 59,
(15,22) --> 59,
(15,23) --> 63,
(15,24) --> 59,
(15,25) --> 38,
(15,26) --> 38,
(15,27) --> 44,
(15,28) --> 48,
(15,29) --> 62,
(15,30) --> 65,
(15,31) --> 44,
(15,32) --> 41,
(15,33) --> 57,
(15,34) --> 73,
(15,35) --> 47,
(15,36) --> 46,
(15,37) --> 60,
(15,38) --> 45,
(16,0) --> 93,
(16,1) --> 40,
(16,2) --> 10,
(16,3) --> 84,
(16,4) --> 71,
(16,5) --> 65,
(16,6) --> 129,
(16,7) --> 119,
(16,8) --> 111,
(16,9) --> 115,
(16,10) --> 122,
(16,11) --> 62,
(16,12) --> 54,
(16,13) --> 122,
(16,14) --> 111,
(16,15) --> 63,
(16,16) --> 0,
(16,17) --> 68,
(16,18) --> 128,
(16,19) --> 123,
(16,20) --> 123,
(16,21) --> 8,
(16,22) --> 4,
(16,23) --> 8,
(16,24) --> 8,
(16,25) --> 34,
(16,26) --> 33,
(16,27) --> 63,
(16,28) --> 77,
(16,29) --> 109,
(16,30) --> 3,
(16,31) --> 77,
(16,32) --> 34,
(16,33) --> 9,
(16,34) --> 120,
(16,35) --> 70,
(16,36) --> 75,
(16,37) --> 6,
(16,38) --> 62,
(17,0) --> 29,
(17,1) --> 30,
(17,2) --> 58,
(17,3) --> 17,
(17,4) --> 3,
(17,5) --> 45,
(17,6) --> 62,
(17,7) --> 53,
(17,8) --> 44,
(17,9) --> 49,
(17,10) --> 55,
(17,11) --> 50,
(17,12) --> 47,
(17,13) --> 55,
(17,14) --> 44,
(17,15) --> 45,
(17,16) --> 68,
(17,17) --> 0,
(17,18) --> 61,
(17,19) --> 57,
(17,20) --> 57,
(17,21) --> 60,
(17,22) --> 66,
(17,23) --> 63,
(17,24) --> 60,
(17,25) --> 35,
(17,26) --> 37,
(17,27) --> 6,
(17,28) --> 8,
(17,29) --> 44,
(17,30) --> 68,
(17,31) --> 11,
(17,32) --> 34,
(17,33) --> 59,
(17,34) --> 54,
(17,35) --> 2,
(17,36) --> 7,
(17,37) --> 62,
(17,38) --> 7,
(18,0) --> 35,
(18,1) --> 88,
(18,2) --> 118,
(18,3) --> 44,
(18,4) --> 58,
(18,5) --> 80,
(18,6) --> 1,
(18,7) --> 9,
(18,8) --> 17,
(18,9) --> 14,
(18,10) --> 6,
(18,11) --> 87,
(18,12) --> 89,
(18,13) --> 6,
(18,14) --> 17,
(18,15) --> 81,
(18,16) --> 128,
(18,17) --> 61,
(18,18) --> 0,
(18,19) --> 6,
(18,20) --> 6,
(18,21) --> 120,
(18,22) --> 125,
(18,23) --> 123,
(18,24) --> 120,
(18,25) --> 94,
(18,26) --> 95,
(18,27) --> 67,
(18,28) --> 52,
(18,29) --> 19,
(18,30) --> 128,
(18,31) --> 51,
(18,32) --> 94,
(18,33) --> 119,
(18,34) --> 8,
(18,35) --> 60,
(18,36) --> 54,
(18,37) --> 122,
(18,38) --> 68,
(19,0) --> 30,
(19,1) --> 84,
(19,2) --> 113,
(19,3) --> 40,
(19,4) --> 55,
(19,5) --> 74,
(19,6) --> 7,
(19,7) --> 4,
(19,8) --> 13,
(19,9) --> 9,
(19,10) --> 4,
(19,11) --> 81,
(19,12) --> 84,
(19,13) --> 7,
(19,14) --> 14,
(19,15) --> 75,
(19,16) --> 123,
(19,17) --> 57,
(19,18) --> 6,
(19,19) --> 0,
(19,20) --> 0,
(19,21) --> 116,
(19,22) --> 121,
(19,23) --> 119,
(19,24) --> 116,
(19,25) --> 89,
(19,26) --> 91,
(19,27) --> 63,
(19,28) --> 49,
(19,29) --> 14,
(19,30) --> 123,
(19,31) --> 47,
(19,32) --> 89,
(19,33) --> 115,
(19,34) --> 3,
(19,35) --> 56,
(19,36) --> 50,
(19,37) --> 117,
(19,38) --> 64,
(20,0) --> 30,
(20,1) --> 84,
(20,2) --> 113,
(20,3) --> 40,
(20,4) --> 55,
(20,5) --> 74,
(20,6) --> 7,
(20,7) --> 4,
(20,8) --> 13,
(20,9) --> 9,
(20,10) --> 4,
(20,11) --> 81,
(20,12) --> 84,
(20,13) --> 7,
(20,14) --> 14,
(20,15) --> 75,
(20,16) --> 123,
(20,17) --> 57,
(20,18) --> 6,
(20,19) --> 0,
(20,20) --> 0,
(20,21) --> 116,
(20,22) --> 121,
(20,23) --> 119,
(20,24) --> 116,
(20,25) --> 89,
(20,26) --> 91,
(20,27) --> 63,
(20,28) --> 49,
(20,29) --> 14,
(20,30) --> 123,
(20,31) --> 47,
(20,32) --> 89,
(20,33) --> 115,
(20,34) --> 3,
(20,35) --> 56,
(20,36) --> 50,
(20,37) --> 117,
(20,38) --> 64,
(21,0) --> 86,
(21,1) --> 33,
(21,2) --> 3,
(21,3) --> 77,
(21,4) --> 64,
(21,5) --> 60,
(21,6) --> 122,
(21,7) --> 112,
(21,8) --> 103,
(21,9) --> 107,
(21,10) --> 115,
(21,11) --> 58,
(21,12) --> 50,
(21,13) --> 115,
(21,14) --> 104,
(21,15) --> 59,
(21,16) --> 8,
(21,17) --> 60,
(21,18) --> 120,
(21,19) --> 116,
(21,20) --> 116,
(21,21) --> 0,
(21,22) --> 8,
(21,23) --> 4,
(21,24) --> 0,
(21,25) --> 27,
(21,26) --> 26,
(21,27) --> 55,
(21,28) --> 69,
(21,29) --> 102,
(21,30) --> 7,
(21,31) --> 70,
(21,32) --> 27,
(21,33) --> 2,
(21,34) --> 113,
(21,35) --> 62,
(21,36) --> 67,
(21,37) --> 2,
(21,38) --> 54,
(22,0) --> 91,
(22,1) --> 37,
(22,2) --> 9,
(22,3) --> 82,
(22,4) --> 69,
(22,5) --> 61,
(22,6) --> 127,
(22,7) --> 117,
(22,8) --> 108,
(22,9) --> 112,
(22,10) --> 120,
(22,11) --> 58,
(22,12) --> 50,
(22,13) --> 120,
(22,14) --> 109,
(22,15) --> 59,
(22,16) --> 4,
(22,17) --> 66,
(22,18) --> 125,
(22,19) --> 121,
(22,20) --> 121,
(22,21) --> 8,
(22,22) --> 0,
(22,23) --> 10,
(22,24) --> 8,
(22,25) --> 32,
(22,26) --> 30,
(22,27) --> 61,
(22,28) --> 74,
(22,29) --> 106,
(22,30) --> 6,
(22,31) --> 75,
(22,32) --> 32,
(22,33) --> 8,
(22,34) --> 118,
(22,35) --> 68,
(22,36) --> 73,
(22,37) --> 6,
(22,38) --> 60,
(23,0) --> 89,
(23,1) --> 36,
(23,2) --> 7,
(23,3) --> 79,
(23,4) --> 66,
(23,5) --> 64,
(23,6) --> 125,
(23,7) --> 115,
(23,8) --> 106,
(23,9) --> 110,
(23,10) --> 117,
(23,11) --> 62,
(23,12) --> 54,
(23,13) --> 118,
(23,14) --> 106,
(23,15) --> 63,
(23,16) --> 8,
(23,17) --> 63,
(23,18) --> 123,
(23,19) --> 119,
(23,20) --> 119,
(23,21) --> 4,
(23,22) --> 10,
(23,23) --> 0,
(23,24) --> 4,
(23,25) --> 30,
(23,26) --> 29,
(23,27) --> 57,
(23,28) --> 71,
(23,29) --> 105,
(23,30) --> 6,
(23,31) --> 72,
(23,32) --> 30,
(23,33) --> 6,
(23,34) --> 116,
(23,35) --> 64,
(23,36) --> 70,
(23,37) --> 4,
(23,38) --> 56,
(24,0) --> 86,
(24,1) --> 33,
(24,2) --> 3,
(24,3) --> 77,
(24,4) --> 64,
(24,5) --> 60,
(24,6) --> 122,
(24,7) --> 112,
(24,8) --> 103,
(24,9) --> 107,
(24,10) --> 115,
(24,11) --> 58,
(24,12) --> 50,
(24,13) --> 115,
(24,14) --> 104,
(24,15) --> 59,
(24,16) --> 8,
(24,17) --> 60,
(24,18) --> 120,
(24,19) --> 116,
(24,20) --> 116,
(24,21) --> 0,
(24,22) --> 8,
(24,23) --> 4,
(24,24) --> 0,
(24,25) --> 27,
(24,26) --> 26,
(24,27) --> 55,
(24,28) --> 69,
(24,29) --> 102,
(24,30) --> 7,
(24,31) --> 70,
(24,32) --> 27,
(24,33) --> 2,
(24,34) --> 113,
(24,35) --> 62,
(24,36) --> 67,
(24,37) --> 2,
(24,38) --> 54,
(25,0) --> 59,
(25,1) --> 6,
(25,2) --> 24,
(25,3) --> 50,
(25,4) --> 38,
(25,5) --> 39,
(25,6) --> 95,
(25,7) --> 85,
(25,8) --> 77,
(25,9) --> 81,
(25,10) --> 88,
(25,11) --> 40,
(25,12) --> 32,
(25,13) --> 88,
(25,14) --> 77,
(25,15) --> 38,
(25,16) --> 34,
(25,17) --> 35,
(25,18) --> 94,
(25,19) --> 89,
(25,20) --> 89,
(25,21) --> 27,
(25,22) --> 32,
(25,23) --> 30,
(25,24) --> 27,
(25,25) --> 0,
(25,26) --> 2,
(25,27) --> 30,
(25,28) --> 43,
(25,29) --> 75,
(25,30) --> 34,
(25,31) --> 43,
(25,32) --> 3,
(25,33) --> 25,
(25,34) --> 86,
(25,35) --> 37,
(25,36) --> 41,
(25,37) --> 28,
(25,38) --> 29,
(26,0) --> 61,
(26,1) --> 7,
(26,2) --> 23,
(26,3) --> 52,
(26,4) --> 40,
(26,5) --> 39,
(26,6) --> 97,
(26,7) --> 87,
(26,8) --> 78,
(26,9) --> 82,
(26,10) --> 90,
(26,11) --> 39,
(26,12) --> 32,
(26,13) --> 90,
(26,14) --> 79,
(26,15) --> 38,
(26,16) --> 33,
(26,17) --> 37,
(26,18) --> 95,
(26,19) --> 91,
(26,20) --> 91,
(26,21) --> 26,
(26,22) --> 30,
(26,23) --> 29,
(26,24) --> 26,
(26,25) --> 2,
(26,26) --> 0,
(26,27) --> 32,
(26,28) --> 45,
(26,29) --> 76,
(26,30) --> 33,
(26,31) --> 45,
(26,32) --> 4,
(26,33) --> 24,
(26,34) --> 88,
(26,35) --> 39,
(26,36) --> 43,
(26,37) --> 27,
(26,38) --> 31,
(27,0) --> 34,
(27,1) --> 25,
(27,2) --> 52,
(27,3) --> 23,
(27,4) --> 9,
(27,5) --> 44,
(27,6) --> 68,
(27,7) --> 58,
(27,8) --> 50,
(27,9) --> 55,
(27,10) --> 61,
(27,11) --> 49,
(27,12) --> 45,
(27,13) --> 61,
(27,14) --> 50,
(27,15) --> 44,
(27,16) --> 63,
(27,17) --> 6,
(27,18) --> 67,
(27,19) --> 63,
(27,20) --> 63,
(27,21) --> 55,
(27,22) --> 61,
(27,23) --> 57,
(27,24) --> 55,
(27,25) --> 30,
(27,26) --> 32,
(27,27) --> 0,
(27,28) --> 14,
(27,29) --> 49,
(27,30) --> 62,
(27,31) --> 16,
(27,32) --> 29,
(27,33) --> 54,
(27,34) --> 60,
(27,35) --> 7,
(27,36) --> 13,
(27,37) --> 57,
(27,38) --> 2,
(28,0) --> 22,
(28,1) --> 38,
(28,2) --> 66,
(28,3) --> 9,
(28,4) --> 6,
(28,5) --> 47,
(28,6) --> 54,
(28,7) --> 44,
(28,8) --> 36,
(28,9) --> 41,
(28,10) --> 47,
(28,11) --> 53,
(28,12) --> 51,
(28,13) --> 47,
(28,14) --> 35,
(28,15) --> 48,
(28,16) --> 77,
(28,17) --> 8,
(28,18) --> 52,
(28,19) --> 49,
(28,20) --> 49,
(28,21) --> 69,
(28,22) --> 74,
(28,23) --> 71,
(28,24) --> 69,
(28,25) --> 43,
(28,26) --> 45,
(28,27) --> 14,
(28,28) --> 0,
(28,29) --> 35,
(28,30) --> 76,
(28,31) --> 4,
(28,32) --> 42,
(28,33) --> 68,
(28,34) --> 46,
(28,35) --> 7,
(28,36) --> 2,
(28,37) --> 70,
(28,38) --> 16,
(29,0) --> 16,
(29,1) --> 69,
(29,2) --> 99,
(29,3) --> 26,
(29,4) --> 41,
(29,5) --> 61,
(29,6) --> 21,
(29,7) --> 10,
(29,8) --> 4,
(29,9) --> 6,
(29,10) --> 14,
(29,11) --> 68,
(29,12) --> 70,
(29,13) --> 15,
(29,14) --> 7,
(29,15) --> 62,
(29,16) --> 109,
(29,17) --> 44,
(29,18) --> 19,
(29,19) --> 14,
(29,20) --> 14,
(29,21) --> 102,
(29,22) --> 106,
(29,23) --> 105,
(29,24) --> 102,
(29,25) --> 75,
(29,26) --> 76,
(29,27) --> 49,
(29,28) --> 35,
(29,29) --> 0,
(29,30) --> 109,
(29,31) --> 33,
(29,32) --> 75,
(29,33) --> 100,
(29,34) --> 11,
(29,35) --> 43,
(29,36) --> 36,
(29,37) --> 103,
(29,38) --> 51,
(30,0) --> 93,
(30,1) --> 40,
(30,2) --> 10,
(30,3) --> 84,
(30,4) --> 71,
(30,5) --> 66,
(30,6) --> 129,
(30,7) --> 119,
(30,8) --> 111,
(30,9) --> 115,
(30,10) --> 122,
(30,11) --> 63,
(30,12) --> 55,
(30,13) --> 122,
(30,14) --> 111,
(30,15) --> 65,
(30,16) --> 3,
(30,17) --> 68,
(30,18) --> 128,
(30,19) --> 123,
(30,20) --> 123,
(30,21) --> 7,
(30,22) --> 6,
(30,23) --> 6,
(30,24) --> 7,
(30,25) --> 34,
(30,26) --> 33,
(30,27) --> 62,
(30,28) --> 76,
(30,29) --> 109,
(30,30) --> 0,
(30,31) --> 77,
(30,32) --> 34,
(30,33) --> 8,
(30,34) --> 120,
(30,35) --> 69,
(30,36) --> 74,
(30,37) --> 6,
(30,38) --> 61,
(31,0) --> 18,
(31,1) --> 38,
(31,2) --> 67,
(31,3) --> 7,
(31,4) --> 9,
(31,5) --> 44,
(31,6) --> 52,
(31,7) --> 43,
(31,8) --> 34,
(31,9) --> 39,
(31,10) --> 45,
(31,11) --> 50,
(31,12) --> 48,
(31,13) --> 45,
(31,14) --> 34,
(31,15) --> 44,
(31,16) --> 77,
(31,17) --> 11,
(31,18) --> 51,
(31,19) --> 47,
(31,20) --> 47,
(31,21) --> 70,
(31,22) --> 75,
(31,23) --> 72,
(31,24) --> 70,
(31,25) --> 43,
(31,26) --> 45,
(31,27) --> 16,
(31,28) --> 4,
(31,29) --> 33,
(31,30) --> 77,
(31,31) --> 0,
(31,32) --> 43,
(31,33) --> 68,
(31,34) --> 44,
(31,35) --> 10,
(31,36) --> 4,
(31,37) --> 71,
(31,38) --> 18,
(32,0) --> 59,
(32,1) --> 7,
(32,2) --> 24,
(32,3) --> 50,
(32,4) --> 37,
(32,5) --> 42,
(32,6) --> 95,
(32,7) --> 85,
(32,8) --> 76,
(32,9) --> 81,
(32,10) --> 88,
(32,11) --> 42,
(32,12) --> 35,
(32,13) --> 88,
(32,14) --> 77,
(32,15) --> 41,
(32,16) --> 34,
(32,17) --> 34,
(32,18) --> 94,
(32,19) --> 89,
(32,20) --> 89,
(32,21) --> 27,
(32,22) --> 32,
(32,23) --> 30,
(32,24) --> 27,
(32,25) --> 3,
(32,26) --> 4,
(32,27) --> 29,
(32,28) --> 42,
(32,29) --> 75,
(32,30) --> 34,
(32,31) --> 43,
(32,32) --> 0,
(32,33) --> 26,
(32,34) --> 86,
(32,35) --> 36,
(32,36) --> 40,
(32,37) --> 28,
(32,38) --> 28,
(33,0) --> 85,
(33,1) --> 31,
(33,2) --> 1,
(33,3) --> 75,
(33,4) --> 62,
(33,5) --> 58,
(33,6) --> 121,
(33,7) --> 110,
(33,8) --> 102,
(33,9) --> 106,
(33,10) --> 113,
(33,11) --> 56,
(33,12) --> 48,
(33,13) --> 114,
(33,14) --> 102,
(33,15) --> 57,
(33,16) --> 9,
(33,17) --> 59,
(33,18) --> 119,
(33,19) --> 115,
(33,20) --> 115,
(33,21) --> 2,
(33,22) --> 8,
(33,23) --> 6,
(33,24) --> 2,
(33,25) --> 25,
(33,26) --> 24,
(33,27) --> 54,
(33,28) --> 68,
(33,29) --> 100,
(33,30) --> 8,
(33,31) --> 68,
(33,32) --> 26,
(33,33) --> 0,
(33,34) --> 112,
(33,35) --> 61,
(33,36) --> 66,
(33,37) --> 3,
(33,38) --> 53,
(34,0) --> 27,
(34,1) --> 81,
(34,2) --> 110,
(34,3) --> 37,
(34,4) --> 52,
(34,5) --> 72,
(34,6) --> 9,
(34,7) --> 2,
(34,8) --> 10,
(34,9) --> 6,
(34,10) --> 4,
(34,11) --> 79,
(34,12) --> 81,
(34,13) --> 7,
(34,14) --> 11,
(34,15) --> 73,
(34,16) --> 120,
(34,17) --> 54,
(34,18) --> 8,
(34,19) --> 3,
(34,20) --> 3,
(34,21) --> 113,
(34,22) --> 118,
(34,23) --> 116,
(34,24) --> 113,
(34,25) --> 86,
(34,26) --> 88,
(34,27) --> 60,
(34,28) --> 46,
(34,29) --> 11,
(34,30) --> 120,
(34,31) --> 44,
(34,32) --> 86,
(34,33) --> 112,
(34,34) --> 0,
(34,35) --> 53,
(34,36) --> 47,
(34,37) --> 115,
(34,38) --> 62,
(35,0) --> 28,
(35,1) --> 32,
(35,2) --> 60,
(35,3) --> 17,
(35,4) --> 1,
(35,5) --> 46,
(35,6) --> 61,
(35,7) --> 52,
(35,8) --> 43,
(35,9) --> 48,
(35,10) --> 54,
(35,11) --> 52,
(35,12) --> 49,
(35,13) --> 54,
(35,14) --> 43,
(35,15) --> 47,
(35,16) --> 70,
(35,17) --> 2,
(35,18) --> 60,
(35,19) --> 56,
(35,20) --> 56,
(35,21) --> 62,
(35,22) --> 68,
(35,23) --> 64,
(35,24) --> 62,
(35,25) --> 37,
(35,26) --> 39,
(35,27) --> 7,
(35,28) --> 7,
(35,29) --> 43,
(35,30) --> 69,
(35,31) --> 10,
(35,32) --> 36,
(35,33) --> 61,
(35,34) --> 53,
(35,35) --> 0,
(35,36) --> 6,
(35,37) --> 64,
(35,38) --> 8,
(36,0) --> 22,
(36,1) --> 36,
(36,2) --> 65,
(36,3) --> 10,
(36,4) --> 5,
(36,5) --> 45,
(36,6) --> 55,
(36,7) --> 46,
(36,8) --> 37,
(36,9) --> 42,
(36,10) --> 48,
(36,11) --> 51,
(36,12) --> 49,
(36,13) --> 48,
(36,14) --> 37,
(36,15) --> 46,
(36,16) --> 75,
(36,17) --> 7,
(36,18) --> 54,
(36,19) --> 50,
(36,20) --> 50,
(36,21) --> 67,
(36,22) --> 73,
(36,23) --> 70,
(36,24) --> 67,
(36,25) --> 41,
(36,26) --> 43,
(36,27) --> 13,
(36,28) --> 2,
(36,29) --> 36,
(36,30) --> 74,
(36,31) --> 4,
(36,32) --> 40,
(36,33) --> 66,
(36,34) --> 47,
(36,35) --> 6,
(36,36) --> 0,
(36,37) --> 69,
(36,38) --> 14,
(37,0) --> 88,
(37,1) --> 34,
(37,2) --> 4,
(37,3) --> 78,
(37,4) --> 65,
(37,5) --> 61,
(37,6) --> 123,
(37,7) --> 113,
(37,8) --> 105,
(37,9) --> 109,
(37,10) --> 116,
(37,11) --> 59,
(37,12) --> 51,
(37,13) --> 117,
(37,14) --> 105,
(37,15) --> 60,
(37,16) --> 6,
(37,17) --> 62,
(37,18) --> 122,
(37,19) --> 117,
(37,20) --> 117,
(37,21) --> 2,
(37,22) --> 6,
(37,23) --> 4,
(37,24) --> 2,
(37,25) --> 28,
(37,26) --> 27,
(37,27) --> 57,
(37,28) --> 70,
(37,29) --> 103,
(37,30) --> 6,
(37,31) --> 71,
(37,32) --> 28,
(37,33) --> 3,
(37,34) --> 115,
(37,35) --> 64,
(37,36) --> 69,
(37,37) --> 0,
(37,38) --> 56,
(38,0) --> 36,
(38,1) --> 25,
(38,2) --> 51,
(38,3) --> 25,
(38,4) --> 10,
(38,5) --> 45,
(38,6) --> 70,
(38,7) --> 60,
(38,8) --> 51,
(38,9) --> 56,
(38,10) --> 62,
(38,11) --> 50,
(38,12) --> 46,
(38,13) --> 62,
(38,14) --> 51,
(38,15) --> 45,
(38,16) --> 62,
(38,17) --> 7,
(38,18) --> 68,
(38,19) --> 64,
(38,20) --> 64,
(38,21) --> 54,
(38,22) --> 60,
(38,23) --> 56,
(38,24) --> 54,
(38,25) --> 29,
(38,26) --> 31,
(38,27) --> 2,
(38,28) --> 16,
(38,29) --> 51,
(38,30) --> 61,
(38,31) --> 18,
(38,32) --> 28,
(38,33) --> 53,
(38,34) --> 62,
(38,35) --> 8,
(38,36) --> 14,
(38,37) --> 56,
(38,38) --> 0)
letting orderWeights be function (
1 --> 14
,
2 --> 16
,
3 --> 18
,
4 --> 20
,
5 --> 1
,
6 --> 12
,
7 --> 13
,
8 --> 18
,
9 --> 9
,
10 --> 15
,
11 --> 8
,
12 --> 10
,
13 --> 7
,
14 --> 18
,
15 --> 14
,
16 --> 1
,
17 --> 15
,
18 --> 7
,
19 --> 25
,
20 --> 2
,
21 --> 3
,
22 --> 4
,
23 --> 16
,
24 --> 15
,
25 --> 23
,
26 --> 11
,
27 --> 21
,
28 --> 10
,
29 --> 12
,
30 --> 9
,
31 --> 7
,
32 --> 8
,
33 --> 4
,
34 --> 23
,
35 --> 8
,
36 --> 6
,
37 --> 2
,
38 --> 15
)
letting vehicleCapacity be 100
